% From JaCoP's nonogramRepository/data122.nin
 rows = 15;
 row_rule_len = 3;
 row_rules = array2d(1..rows, 1..row_rule_len, 
[
 0,0,2,
 0,0,4,
 0,0,4,
 0,0,4,
 0,0,4,
 0,0,5,
 0,0,5,
 0,0,5,
 0,3,1,
 2,2,1,
 4,2,1,
 0,9,1,
 0,10,1,
 2,7,2,
 0,3,6
]);

 cols = 15;
 col_rule_len = 2;
 col_rules = array2d(1..cols, 1..col_rule_len, 
[
 0,1,
 0,2,
 0,4,
 0,3,
 0,4,
 0,5,
 0,5,
 0,4,
 0,4,
 2,9,
 4,10,
 9,3,
 0,7,
 0,11,
 2,1
]);

